c colouring generated by benchmark framework
p edge 229 2519
v 1 6
v 2 2
v 3 4
v 4 6
v 5 5
v 6 3
v 7 8
v 8 2
v 9 1
v 10 10
v 11 9
v 12 11
v 13 5
v 14 0
v 15 4
v 16 11
v 17 7
v 18 9
v 19 8
v 20 4
v 21 8
v 22 3
v 23 9
v 24 10
v 25 5
v 26 0
v 27 5
v 28 10
v 29 4
v 30 11
v 31 6
v 32 3
v 33 4
v 34 7
v 35 7
v 36 6
v 37 9
v 38 2
v 39 2
v 40 5
v 41 8
v 42 1
v 43 0
v 44 3
v 45 10
v 46 4
v 47 7
v 48 0
v 49 6
v 50 1
v 51 11
v 52 2
v 53 10
v 54 0
v 55 11
v 56 3
v 57 2
v 58 1
v 59 7
v 60 9
v 61 7
v 62 9
v 63 6
v 64 11
v 65 5
v 66 4
v 67 11
v 68 8
v 69 7
v 70 0
v 71 3
v 72 3
v 73 1
v 74 10
v 75 9
v 76 9
v 77 6
v 78 4
v 79 10
v 80 6
v 81 3
v 82 8
v 83 1
v 84 0
v 85 7
v 86 1
v 87 2
v 88 0
v 89 7
v 90 4
v 91 4
v 92 10
v 93 6
v 94 5
v 95 11
v 96 3
v 97 8
v 98 3
v 99 2
v 100 7
v 101 6
v 102 7
v 103 9
v 104 9
v 105 7
v 106 2
v 107 11
v 108 10
v 109 0
v 110 3
v 111 1
v 112 5
v 113 8
v 114 0
v 115 4
v 116 9
v 117 7
v 118 2
v 119 4
v 120 9
v 121 10
v 122 11
v 123 2
v 124 1
v 125 5
v 126 3
v 127 6
v 128 6
v 129 3
v 130 0
v 131 3
v 132 8
v 133 11
v 134 4
v 135 8
v 136 1
v 137 7
v 138 9
v 139 5
v 140 9
v 141 2
v 142 9
v 143 0
v 144 10
v 145 11
v 146 2
v 147 8
v 148 1
v 149 8
v 150 10
v 151 4
v 152 5
v 153 5
v 154 2
v 155 7
v 156 1
v 157 11
v 158 0
v 159 0
v 160 1
v 161 9
v 162 1
v 163 6
v 164 8
v 165 5
v 166 4
v 167 3
v 168 2
v 169 2
v 170 7
v 171 10
v 172 0
v 173 9
v 174 11
v 175 8
v 176 11
v 177 1
v 178 5
v 179 6
v 180 10
v 181 3
v 182 4
v 183 3
v 184 5
v 185 2
v 186 4
v 187 2
v 188 0
v 189 1
v 190 10
v 191 0
v 192 10
v 193 11
v 194 11
v 195 7
v 196 0
v 197 6
v 198 4
v 199 9
v 200 2
v 201 1
v 202 8
v 203 3
v 204 4
v 205 11
v 206 2
v 207 11
v 208 0
v 209 5
v 210 10
v 211 0
v 212 10
v 213 2
v 214 1
v 215 6
v 216 3
v 217 8
v 218 9
v 219 1
v 220 4
v 221 8
v 222 5
v 223 7
v 224 9
v 225 11
v 226 10
v 227 0
v 228 0
v 229 10
